objective value:                                   -3
t_n_16                                              1 	(obj:-1)
t_n_506                                             1 	(obj:-1)
t_n_1828                                            1 	(obj:-1)
